Route #1: 60 3 30 57 61 62
Route #2: 44 40 64 6 34 36 42
Route #3: 20 19 1 49 35 11 14 4
Route #4: 46 50 39 53
Route #5: 38 7 29 24 59 10 27 43
Route #6: 66 51 32 8 23 37 65
Route #7: 26 2 16 41 17 18 31
Route #8: 54 55 22 52 45 15 56 21 25
Route #9: 12 58 13 28 5
Route #10: 33 47 9 48 63
Cost 1104.3484826427816